     Program PWSCF v.7.2 starts on 15Jan2025 at  8:10:28

     Waiting for input...
     Reading input from standard input

     Current dimensions of program PWSCF are:
     Max number of different atomic species (ntypx) = 10
     Max number of k-points (npk) =  40000
     Max angular momentum in pseudopotentials (lmaxx) =  4
     Found identity + (  0.0000 -0.5000 -0.5000) symmetry
     This is a supercell, fractional translations are disabled

     K-points division:     npool     =       2
     R & G space division:  proc/nbgrp/npool/nimage =      16
     Subspace diagonalization in iterative solution of the eigenvalue problem:
     a serial algorithm will be used

     Using Slab Decomposition

     bravais-lattice index     =            0
     lattice parameter (alat)  =      12.4183  a.u.
     unit-cell volume          =    1915.0662 (a.u.)^3
     number of atoms/cell      =           16
     number of atomic types    =            2
     number of electrons       =       244.00
     number of Kohn-Sham states=          146
     kinetic-energy cutoff     =      45.0000  Ry
     charge density cutoff     =     240.0000  Ry
     scf convergence threshold =      1.6E-09
     mixing beta               =       0.4000
     number of iterations used =            8  plain     mixing
     energy convergence thresh.=      0.0E+00
     force convergence thresh. =      0.0E+00
     press convergence thresh. =      0.0E+00
     Exchange-correlation= PBESOL
                           (   1   4  10   8   0   0   0)
     nstep                     =           50

     celldm(1)=  12.418275  celldm(2)=   0.000000  celldm(3)=   0.000000
     celldm(4)=   0.000000  celldm(5)=   0.000000  celldm(6)=   0.000000

     crystal axes: (cart. coord. in units of alat)
               a(1) = (   1.000000   0.000000   0.000000 )
               a(2) = (   0.000000   1.000000   0.000000 )
               a(3) = (   0.000000   0.000000   1.000000 )

     reciprocal axes: (cart. coord. in units 2 pi/alat)
               b(1) = (  1.000000  0.000000  0.000000 )
               b(2) = (  0.000000  1.000000  0.000000 )
               b(3) = (  0.000000  0.000000  1.000000 )

     PseudoPot. # 1 for Au read from file:
     ./pseudo/Au_ONCV_PBEsol-1.0.upf
     MD5 check sum: 107326c382cdbc7cf544f5ac04d81467
     Pseudo is Norm-conserving, Zval = 19.0
     Generated using ONCVPSP code by D. R. Hamann
     Using radial grid of 1262 points,  8 beta functions with:
                l(1) =   0
                l(2) =   0
                l(3) =   1
                l(4) =   1
                l(5) =   2
                l(6) =   2
                l(7) =   3
                l(8) =   3

     PseudoPot. # 2 for Si read from file:
     ./pseudo/Si.pbesol-n-rrkjus_psl.1.0.0.UPF
     MD5 check sum: c4212819de858c94c3a1644338846ac9
     Pseudo is Ultrasoft + core correction, Zval =  4.0
     Generated using "atomic" code by A. Dal Corso  v.6.0 svn rev. 13079
     Using radial grid of 1141 points,  6 beta functions with:
                l(1) =   0
                l(2) =   0
                l(3) =   1
                l(4) =   1
                l(5) =   2
                l(6) =   2
     Q(r) pseudized with 0 coefficients

     atomic species   valence    mass     pseudopotential
        Au            19.00   196.96657     Au( 1.00)
        Si             4.00    28.08550     Si( 1.00)

      cell mass = 188.14894 AMU

     No symmetry found

   Cartesian axes

     site n.     atom                  positions (alat units)
         1           Si  tau(   1) = (   0.0000000   0.0000000   0.0000000  )
         2           Si  tau(   2) = (   0.0000000   0.5000000   0.5000000  )
         3           Si  tau(   3) = (   0.5000000   0.0000000   0.5000000  )
         4           Si  tau(   4) = (   0.5000000   0.5000000   0.0000000  )
         5           Au  tau(   5) = (   0.2500000   0.7500000   0.7500000  )
         6           Au  tau(   6) = (   0.2500000   0.2500000   0.7500000  )
         7           Au  tau(   7) = (   0.5000000   0.0000000   0.0000000  )
         8           Au  tau(   8) = (   0.2500000   0.2500000   0.2500000  )
         9           Au  tau(   9) = (   0.2500000   0.7500000   0.2500000  )
        10           Au  tau(  10) = (   0.5000000   0.5000000   0.5000000  )
        11           Au  tau(  11) = (   0.7500000   0.7500000   0.2500000  )
        12           Au  tau(  12) = (   0.7500000   0.2500000   0.2500000  )
        13           Au  tau(  13) = (   0.0000000   0.0000000   0.5000000  )
        14           Au  tau(  14) = (   0.7500000   0.2500000   0.7500000  )
        15           Au  tau(  15) = (   0.7500000   0.7500000   0.7500000  )
        16           Au  tau(  16) = (   0.0000000   0.5000000   0.0000000  )

     number of k points=    14  Marzari-Vanderbilt smearing, width (Ry)=  0.0200
                       cart. coord. in units 2pi/alat
        k(    1) = (   0.0000000   0.0000000   0.0000000), wk =   0.0740741
        k(    2) = (   0.0000000   0.0000000   0.3333333), wk =   0.1481481
        k(    3) = (   0.0000000   0.3333333   0.0000000), wk =   0.1481481
        k(    4) = (   0.0000000   0.3333333   0.3333333), wk =   0.1481481
        k(    5) = (   0.0000000   0.3333333  -0.3333333), wk =   0.1481481
        k(    6) = (   0.3333333   0.0000000   0.0000000), wk =   0.1481481
        k(    7) = (   0.3333333   0.0000000   0.3333333), wk =   0.1481481
        k(    8) = (   0.3333333   0.0000000  -0.3333333), wk =   0.1481481
        k(    9) = (   0.3333333   0.3333333   0.0000000), wk =   0.1481481
        k(   10) = (   0.3333333   0.3333333   0.3333333), wk =   0.1481481
        k(   11) = (   0.3333333   0.3333333  -0.3333333), wk =   0.1481481
        k(   12) = (   0.3333333  -0.3333333   0.0000000), wk =   0.1481481
        k(   13) = (   0.3333333  -0.3333333   0.3333333), wk =   0.1481481
        k(   14) = (   0.3333333  -0.3333333  -0.3333333), wk =   0.1481481

     Initial potential from superposition of free atoms

     starting charge     243.9969, renormalised to     244.0000
     Starting wfcs are  136 randomized atomic wfcs +   10 random wfcs

     Self-consistent Calculation

     iteration #  1     ecut=    45.00 Ry     beta= 0.40
     Davidson diagonalization with overlap
     ethr =  1.00E-02,  avg # of iterations =  3.0

     Threshold (ethr) on eigenvalues was too large:
     Diagonalizing with lowered threshold

     Davidson diagonalization with overlap
     ethr =  3.63E-05,  avg # of iterations =  4.4

     total energy              =   -3342.04088863 Ry
     estimated scf accuracy    <       0.08074978 Ry

[...]

     End of self-consistent calculation

          k = 0.0000 0.0000 0.0000 (  9771 PWs)   bands (ev):

   -89.2523 -89.2516 -89.2516 -89.2516 -89.2512 -89.2512 -89.2512 -89.2507
   -88.9999 -88.9999 -88.9999 -88.9997 -40.5267 -40.5267 -40.5267 -40.5267
   -40.5266 -40.5266 -40.5112 -40.5112 -40.5112 -40.5074 -40.5074 -40.5074
   -40.4996 -40.4996 -40.4996 -40.4867 -40.4867 -40.4867 -40.4867 -40.4867
   -40.4867 -40.4849 -40.4849 -40.4849 -40.2588 -40.2588 -40.2588 -40.2472
   -40.2472 -40.2472 -40.2409 -40.2409 -40.2409 -40.2409 -40.2409 -40.2409
     5.9012   8.0489   8.0489   8.0490   9.6677   9.6677   9.6677  10.2742
    10.2742  10.2742  10.5688  10.5688  10.5688  10.6014  10.6014  10.8068
    10.8068  10.8068  11.2379  11.2380  11.2380  11.2380  11.2380  11.2380
    11.6064  11.6064  11.6064  11.6744  11.6744  11.6744  12.1175  12.1175
    12.1175  12.1175  12.1175  12.1175  12.6655  12.6655  12.6655  13.1063
    13.1063  13.1063  13.4424  13.4424  13.4424  13.4808  13.4808  13.4808
    13.5606  13.5606  13.5606  13.7671  13.7671  13.7671  13.7778  13.7778
    13.8088  13.8088  14.1362  14.1362  14.1362  14.1362  14.1362  14.1362
    14.2659  14.2659  14.2659  14.2819  14.2819  14.2819  14.2819  14.2819
    14.2819  14.9121  17.2381  17.2381  17.2381  17.9349  17.9349  17.9349
    18.6365  18.6365  18.6365  19.2071  20.8680  20.8680  20.8680  22.7297
    22.7297  22.7297  23.1389  23.1389  23.1389  24.0057  24.5941  24.5941
    24.5941  24.5941

[...]

     the Fermi energy is    17.0183 ev

!    total energy              =   -3342.05672692 Ry
     estimated scf accuracy    <          7.2E-10 Ry
     smearing contrib. (-TS)   =      -0.00106091 Ry
     internal energy E=F+TS    =   -3342.05566602 Ry

     convergence has been achieved in  11 iterations

     Forces acting on atoms (cartesian axes, Ry/au):

     atom    1 type  2   force =    -0.00000002    0.00000001    0.00000003
     atom    2 type  2   force =    -0.00000002   -0.00000001   -0.00000001
     atom    3 type  2   force =    -0.00000010    0.00000001   -0.00000003
     atom    4 type  2   force =    -0.00000012   -0.00000004    0.00000006
     atom    5 type  1   force =    -0.00000123    0.00000087   -0.00000057
     atom    6 type  1   force =    -0.00000120   -0.00000088   -0.00000057
     atom    7 type  1   force =    -0.00000138    0.00000052    0.00000106
     atom    8 type  1   force =    -0.00000086   -0.00000072    0.00000037
     atom    9 type  1   force =    -0.00000096    0.00000075    0.00000045
     atom   10 type  1   force =    -0.00000131   -0.00000057   -0.00000097
     atom   11 type  1   force =     0.00000129    0.00000087    0.00000064
     atom   12 type  1   force =     0.00000119   -0.00000081    0.00000060
     atom   13 type  1   force =     0.00000108    0.00000047   -0.00000092
     atom   14 type  1   force =     0.00000123   -0.00000082   -0.00000061
     atom   15 type  1   force =     0.00000128    0.00000091   -0.00000064
     atom   16 type  1   force =     0.00000115   -0.00000058    0.00000111
     The non-local contrib.  to forces
     atom    1 type  2   force =     0.00000109    0.00000046    0.00000085
     atom    2 type  2   force =     0.00000110   -0.00000045   -0.00000089
     atom    3 type  2   force =    -0.00000108    0.00000045   -0.00000084
     atom    4 type  2   force =    -0.00000107   -0.00000043    0.00000083
     atom    5 type  1   force =    -0.00000165    0.00000078   -0.00000060
     atom    6 type  1   force =    -0.00000156   -0.00000077   -0.00000058
     atom    7 type  1   force =     0.00000176   -0.00000068   -0.00000134
     atom    8 type  1   force =    -0.00000133   -0.00000067    0.00000049
     atom    9 type  1   force =    -0.00000145    0.00000074    0.00000052
     atom   10 type  1   force =     0.00000179    0.00000070    0.00000129
     atom   11 type  1   force =     0.00000160    0.00000078    0.00000062
     atom   12 type  1   force =     0.00000152   -0.00000076    0.00000059
     atom   13 type  1   force =    -0.00000163   -0.00000070    0.00000133
     atom   14 type  1   force =     0.00000164   -0.00000080   -0.00000062
     atom   15 type  1   force =     0.00000164    0.00000079   -0.00000061
     atom   16 type  1   force =    -0.00000171    0.00000075   -0.00000142
     The ionic contribution  to forces
     atom    1 type  2   force =    -0.00000000   -0.00000000   -0.00000000
     atom    2 type  2   force =    -0.00000000    0.00000000    0.00000000
[...]
    12.4192  12.5597  12.6226  12.6516  12.6896  12.7690  12.8166  12.8870
    12.9627  13.0495  13.1106  13.2594  13.2974  13.3607  13.4309  13.5308
    13.8039  13.8817  13.9890  14.0153  14.1109  14.1442  14.2296  14.3103
    14.3731  14.4456  14.5120  14.5334  14.6209  14.7178  14.7821  14.8584
    15.0629  15.1527  15.2865  15.8015  16.4570  16.7577  16.8724  17.3431
    17.7338  17.9608  18.0472  18.1964  18.4192  18.5864  19.5728  19.6862
    20.1839  20.5166  20.6981  20.8717  20.9664  21.1454  21.8669  21.9754
    22.3335  22.3590  22.5544  22.7418  23.1892  23.3732  24.0366  24.2142
    24.7958  24.9751

     the Fermi energy is    17.6380 ev

!    total energy              =   -3341.93157642 Ry
     estimated scf accuracy    <          5.2E-10 Ry
     smearing contrib. (-TS)   =       0.00312243 Ry
     internal energy E=F+TS    =   -3341.93469886 Ry

     convergence has been achieved in  11 iterations

     Forces acting on atoms (cartesian axes, Ry/au):

     atom    1 type  2   force =    -0.00641721    0.01167575    0.02171998
     atom    2 type  2   force =     0.02694398    0.04180619    0.03263098
     atom    3 type  2   force =    -0.02609589   -0.05489406   -0.04983045
     atom    4 type  2   force =     0.00043847    0.00856255    0.00447345
     atom    5 type  1   force =     0.06107888   -0.03469094   -0.00279430
     atom    6 type  1   force =    -0.02762187    0.00284029   -0.00783665
     atom    7 type  1   force =    -0.00907962    0.02068465    0.03095017
     atom    8 type  1   force =     0.03035202   -0.02761239    0.00034914
     atom    9 type  1   force =    -0.01199556    0.00802426    0.00296985
     atom   10 type  1   force =    -0.08000691   -0.00859444   -0.01454812
     atom   11 type  1   force =    -0.04150697   -0.03847321   -0.08612213
     atom   12 type  1   force =    -0.04652976   -0.04994341   -0.04556675
     atom   13 type  1   force =     0.06138486    0.08735855    0.03212591
     atom   14 type  1   force =     0.01389347   -0.03661084    0.00604116
     atom   15 type  1   force =     0.00228382    0.02738571    0.00949978
     atom   16 type  1   force =     0.05287829    0.04248134    0.06593797
     The non-local contrib.  to forces
     atom    1 type  2   force =    -0.01600224   -0.04424918   -0.01034054
     atom    2 type  2   force =    -0.00778825    0.03007056   -0.00057143
     atom    3 type  2   force =     0.00945613   -0.02186969   -0.01722537
     atom    4 type  2   force =    -0.02177953    0.00421115   -0.00676211
     atom    5 type  1   force =     0.08489992   -0.02012938   -0.00104708
     atom    6 type  1   force =    -0.03415114    0.00132759   -0.03754134
     atom    7 type  1   force =    -0.02479425    0.06181005    0.03461857
     atom    8 type  1   force =     0.01684657   -0.05633083   -0.00858930
     atom    9 type  1   force =    -0.04842903   -0.01313357    0.01942847
     atom   10 type  1   force =    -0.07746533   -0.04601504    0.01896794
     atom   11 type  1   force =    -0.04462612   -0.04206509   -0.07435254
     atom   12 type  1   force =    -0.03543440   -0.05444724   -0.02859882
     atom   13 type  1   force =     0.06119593    0.09831454    0.03085045
     atom   14 type  1   force =    -0.01754007   -0.05278812   -0.02128500
     atom   15 type  1   force =     0.03335385    0.01832769   -0.01563938
     atom   16 type  1   force =     0.04881466    0.04914372    0.07701855
     The ionic contribution  to forces
     atom    1 type  2   force =    -0.02053716    2.55533769    1.60257504
     atom    2 type  2   force =     2.68310326    0.96988049    1.83648819
     atom    3 type  2   force =    -2.57714468   -3.33302672   -3.52014915
     atom    4 type  2   force =     0.31152800    0.14978400    0.60301360
     atom    5 type  1   force =    12.20825793   -0.42464496    1.88353686
     atom    6 type  1   force =     3.93919707   -1.72485159   -2.53578459
     atom    7 type  1   force =    -2.42548308    3.08713569    4.25388354
     atom    8 type  1   force =     7.89848949   -5.61012041    1.01553463
     atom    9 type  1   force =     0.81896887    3.39053055   -2.33192332
     atom   10 type  1   force =   -13.76215921   -3.34526916   -2.39751934
     atom   11 type  1   force =    -4.64892280    1.61017499  -11.74481969
     atom   12 type  1   force =    -7.98140042   -6.21216164   -6.96544604
     atom   13 type  1   force =     7.86796094    8.03398877   -0.12801540
     atom   14 type  1   force =    -4.33938061  -10.40696596    3.57599706
     atom   15 type  1   force =    -6.75275097    7.07150805    6.30544561
     atom   16 type  1   force =     6.78027337    4.18870021    8.54718301
     The local contribution  to forces
     atom    1 type  2   force =     0.02723702   -2.50225725   -1.57045667
     atom    2 type  2   force =    -2.64758958   -0.95198285   -1.79985046
     atom    3 type  2   force =     2.54129483    3.29327140    3.48109496
     atom    4 type  2   force =    -0.29084592   -0.14442696   -0.59243579
     atom    5 type  1   force =   -12.23205588    0.41010425   -1.88524024
     atom    6 type  1   force =    -3.93264693    1.72633256    2.56551658
     atom    7 type  1   force =     2.44118156   -3.12825353   -4.25754693
     atom    8 type  1   force =    -7.88496742    5.63881556   -1.00662144
     atom    9 type  1   force =    -0.78252318   -3.36934352    2.31542407
     atom   10 type  1   force =    13.75958970    3.38267370    2.36400090
     atom   11 type  1   force =     4.65202555   -1.60655644   11.73299720
     atom   12 type  1   force =     7.97028738    6.21664308    6.94844052
     atom   13 type  1   force =    -7.86776207   -8.04493146    0.12930033
     atom   14 type  1   force =     4.37078995   10.42310212   -3.54863581
     atom   15 type  1   force =     6.72165596   -7.06242250   -6.28025621
     atom   16 type  1   force =    -6.77619940   -4.19535466   -8.55825718
     The core correction contribution to forces
     atom    1 type  2   force =     0.00288461    0.00284432   -0.00005717
     atom    2 type  2   force =    -0.00078233   -0.00616375   -0.00343567
     atom    3 type  2   force =     0.00029303    0.00672974    0.00645464
     atom    4 type  2   force =     0.00153237   -0.00100644    0.00065777
     atom    5 type  1   force =     0.00000000    0.00000000    0.00000000
     atom    6 type  1   force =     0.00000000    0.00000000    0.00000000
     atom    7 type  1   force =     0.00000000    0.00000000    0.00000000
     atom    8 type  1   force =     0.00000000    0.00000000    0.00000000
     atom    9 type  1   force =     0.00000000    0.00000000    0.00000000
     atom   10 type  1   force =     0.00000000    0.00000000    0.00000000
     atom   11 type  1   force =     0.00000000    0.00000000    0.00000000
     atom   12 type  1   force =     0.00000000    0.00000000    0.00000000
     atom   13 type  1   force =     0.00000000    0.00000000    0.00000000
     atom   14 type  1   force =     0.00000000    0.00000000    0.00000000
     atom   15 type  1   force =     0.00000000    0.00000000    0.00000000
     atom   16 type  1   force =     0.00000000    0.00000000    0.00000000
     The Hubbard contrib.    to forces
     atom    1 type  2   force =     0.00000000    0.00000000    0.00000000
     atom    2 type  2   force =     0.00000000    0.00000000    0.00000000
     atom    3 type  2   force =     0.00000000    0.00000000    0.00000000
     atom    4 type  2   force =     0.00000000    0.00000000    0.00000000
     atom    5 type  1   force =     0.00000000    0.00000000    0.00000000
     atom    6 type  1   force =     0.00000000    0.00000000    0.00000000
     atom    7 type  1   force =     0.00000000    0.00000000    0.00000000
     atom    8 type  1   force =     0.00000000    0.00000000    0.00000000
     atom    9 type  1   force =     0.00000000    0.00000000    0.00000000
     atom   10 type  1   force =     0.00000000    0.00000000    0.00000000
     atom   11 type  1   force =     0.00000000    0.00000000    0.00000000
     atom   12 type  1   force =     0.00000000    0.00000000    0.00000000
     atom   13 type  1   force =     0.00000000    0.00000000    0.00000000
     atom   14 type  1   force =     0.00000000    0.00000000    0.00000000
     atom   15 type  1   force =     0.00000000    0.00000000    0.00000000
     atom   16 type  1   force =     0.00000000    0.00000000    0.00000000
     The SCF correction term to forces
     atom    1 type  2   force =    -0.00000185   -0.00000051    0.00000036
     atom    2 type  2   force =    -0.00000154    0.00000104    0.00000139
     atom    3 type  2   force =     0.00000240    0.00000053   -0.00000451
     atom    4 type  2   force =     0.00000115    0.00000011    0.00000102
     atom    5 type  1   force =    -0.00002548   -0.00002152   -0.00004280
     atom    6 type  1   force =    -0.00002328    0.00003105   -0.00002626
     atom    7 type  1   force =     0.00001375   -0.00000825   -0.00000397
     atom    8 type  1   force =    -0.00001902    0.00002260    0.00002629
     atom    9 type  1   force =    -0.00001462   -0.00002988    0.00004168
     atom   10 type  1   force =     0.00002552    0.00001538    0.00000342
     atom   11 type  1   force =     0.00001400   -0.00002735    0.00005395
     atom   12 type  1   force =     0.00001527    0.00002171    0.00003862
     atom   13 type  1   force =    -0.00001233   -0.00001398   -0.00000843
     atom   14 type  1   force =     0.00002180    0.00004043   -0.00003405
     atom   15 type  1   force =     0.00002258   -0.00002821   -0.00004920
     atom   16 type  1   force =    -0.00001274   -0.00000860   -0.00000537

     Total force =     0.259692     Total SCF correction =     0.000156

     Computing stress (Cartesian axis) and pressure

          total   stress  (Ry/bohr**3)                   (kbar)     P=       36.76
   0.00024820   0.00010474   0.00021509           36.51       15.41       31.64
   0.00010474   0.00027573   0.00017735           15.41       40.56       26.09
   0.00021509   0.00017735   0.00022581           31.64       26.09       33.22

     Entering Dynamics;  it =    50   time =  0.04741 pico-seconds

  new lattice vectors (alat unit) :
   0.988539362   0.001874842   0.003054260
   0.001874842   0.988598289   0.003004247
   0.003054260   0.003004247   0.988013149
  new unit-cell volume =   1849.0584 (a.u.)^3
  new positions in cryst coord
Si       0.005738055  -0.060632057  -0.013949791
Si      -0.003888507   0.474835805   0.437885810
Si       0.528164954   0.089804087   0.581437554
Si       0.468340337   0.496056791  -0.002313426
Au       0.202465606   0.747558624   0.723689231
Au       0.246678739   0.242570864   0.773633771
Au       0.520503926  -0.028045899  -0.028708253
Au       0.241112887   0.255033954   0.249986361
Au       0.272760668   0.759748723   0.252403526
Au       0.521977231   0.499303270   0.490536945
Au       0.761085312   0.769918930   0.284071657
Au       0.770118174   0.261441603   0.257789849
Au      -0.031212379  -0.009969701   0.508493719
Au       0.766453311   0.285139078   0.757113508
Au       0.741321722   0.718449552   0.740539588
Au      -0.013030613   0.498841786  -0.009986248
  new positions in cart coord (alat unit)
Si       0.005516011  -0.059971898  -0.013947205
Si      -0.001616283   0.470730092   0.434051586
Si       0.524056077   0.091517175   0.576350896
Si       0.463895820   0.491272009   0.000635015
Au       0.203757111   0.741588909   0.717878711
Au       0.246669304   0.242591812   0.765842502
Au       0.514398354  -0.026836512  -0.026858634
Au       0.239591251   0.253329200   0.248492419
Au       0.271829972   0.752355954   0.252493557
Au       0.518429380   0.496062678   0.487751236
Au       0.754673893   0.763420873   0.285304112
Au       0.762569647   0.260679036   0.257837337
Au      -0.029320285  -0.008386907   0.502273199
Au       0.760516279   0.285599540   0.751235678
Au       0.736434482   0.713872623   0.736085440
Au      -0.011976525   0.493099704  -0.008407699

     Ekin =     0.15990108 Ry    T = 1518.0 K  Etot =    -3341.77167535
     new unit-cell volume =   1849.05841 a.u.^3 (   274.00219 Ang^3 )
     density =     15.00498 g/cm^3

CELL_PARAMETERS (angstrom)
   6.496154781   0.012320464   0.020070973
   0.012320464   6.496542021   0.019742316
   0.020070973   0.019742316   6.492696796

ATOMIC_POSITIONS (crystal)
Si            0.0057380546       -0.0606320566       -0.0139497908
Si           -0.0038885067        0.4748358053        0.4378858101
Si            0.5281649541        0.0898040868        0.5814375541
Si            0.4683403373        0.4960567914       -0.0023134260
Au            0.2024656062        0.7475586243        0.7236892315
Au            0.2466787389        0.2425708642        0.7736337707
Au            0.5205039256       -0.0280458993       -0.0287082535
Au            0.2411128868        0.2550339539        0.2499863612
Au            0.2727606684        0.7597487234        0.2524035256
Au            0.5219772305        0.4993032702        0.4905369446
Au            0.7610853120        0.7699189297        0.2840716567
Au            0.7701181740        0.2614416034        0.2577898491
Au           -0.0312123789       -0.0099697010        0.5084937193
Au            0.7664533110        0.2851390784        0.7571135077
Au            0.7413217221        0.7184495521        0.7405395878
Au           -0.0130306129        0.4988417856       -0.0099862477

     Maximum number of iterations reached, stopping

     Writing all to output data dir ./out/si_au3.save/

     General routines

     Parallel routines

   This run was terminated on:   8:38:52  15Jan2025

   JOB DONE.
Note: The following floating-point exceptions are signalling: IEEE_INVALID_FLAG IEEE_DENORMAL
Note: The following floating-point exceptions are signalling: IEEE_INVALID_FLAG IEEE_DENORMAL
Note: The following floating-point exceptions are signalling: IEEE_INVALID_FLAG IEEE_DENORMAL
Note: The following floating-point exceptions are signalling: IEEE_INVALID_FLAG IEEE_DENORMAL
Note: The following floating-point exceptions are signalling: IEEE_INVALID_FLAG IEEE_DENORMAL
Note: The following floating-point exceptions are signalling: IEEE_INVALID_FLAG IEEE_DENORMAL
Note: The following floating-point exceptions are signalling: IEEE_INVALID_FLAG IEEE_DENORMAL
Note: The following floating-point exceptions are signalling: IEEE_INVALID_FLAG IEEE_DENORMAL
Note: The following floating-point exceptions are signalling: IEEE_INVALID_FLAG IEEE_DENORMAL
Note: The following floating-point exceptions are signalling: IEEE_INVALID_FLAG IEEE_DENORMAL
Note: The following floating-point exceptions are signalling: IEEE_INVALID_FLAG IEEE_DENORMAL
Note: The following floating-point exceptions are signalling: IEEE_INVALID_FLAG IEEE_DENORMAL
Note: The following floating-point exceptions are signalling: IEEE_INVALID_FLAG IEEE_DENORMAL
Note: The following floating-point exceptions are signalling: IEEE_INVALID_FLAG IEEE_DENORMAL
Note: The following floating-point exceptions are signalling: IEEE_INVALID_FLAG IEEE_DENORMAL
Note: The following floating-point exceptions are signalling: IEEE_INVALID_FLAG IEEE_DENORMAL
Note: The following floating-point exceptions are signalling: IEEE_INVALID_FLAG IEEE_DENORMAL
Note: The following floating-point exceptions are signalling: IEEE_INVALID_FLAG IEEE_DENORMAL
Note: The following floating-point exceptions are signalling: IEEE_INVALID_FLAG IEEE_DENORMAL
Note: The following floating-point exceptions are signalling: IEEE_INVALID_FLAG IEEE_DENORMAL
Note: The following floating-point exceptions are signalling: IEEE_INVALID_FLAG IEEE_DENORMAL
Note: The following floating-point exceptions are signalling: IEEE_INVALID_FLAG IEEE_DENORMAL
Note: The following floating-point exceptions are signalling: IEEE_INVALID_FLAG IEEE_DENORMAL
Note: The following floating-point exceptions are signalling: IEEE_INVALID_FLAG IEEE_DENORMAL
Note: The following floating-point exceptions are signalling: IEEE_INVALID_FLAG IEEE_DENORMAL
Note: The following floating-point exceptions are signalling: IEEE_INVALID_FLAG IEEE_DENORMAL
Note: The following floating-point exceptions are signalling: IEEE_INVALID_FLAG IEEE_DENORMAL
Note: The following floating-point exceptions are signalling: IEEE_INVALID_FLAG IEEE_DENORMAL
Note: The following floating-point exceptions are signalling: IEEE_INVALID_FLAG IEEE_DENORMAL
Note: The following floating-point exceptions are signalling: IEEE_INVALID_FLAG IEEE_DENORMAL
Note: The following floating-point exceptions are signalling: IEEE_INVALID_FLAG IEEE_DENORMAL
Note: The following floating-point exceptions are signalling: IEEE_INVALID_FLAG IEEE_DENORMAL