     Program PWSCF v.7.2 starts on 15Jan2025 at  8:46:55

     Waiting for input...
     Reading input from standard input

     Current dimensions of program PWSCF are:
     Max number of different atomic species (ntypx) = 10
     Max number of k-points (npk) =  40000
     Max angular momentum in pseudopotentials (lmaxx) =  4

     K-points division:     npool     =       2
     R & G space division:  proc/nbgrp/npool/nimage =      16
     Subspace diagonalization in iterative solution of the eigenvalue problem:
     a serial algorithm will be used

     Using Slab Decomposition

     bravais-lattice index     =            0
     lattice parameter (alat)  =      11.0289  a.u.
     unit-cell volume          =     943.4440 (a.u.)^3
     number of atoms/cell      =            8
     number of atomic types    =            2
     number of electrons       =       122.00
     number of Kohn-Sham states=           73
     kinetic-energy cutoff     =      45.0000  Ry
     charge density cutoff     =     240.0000  Ry
     scf convergence threshold =      1.6E-09
     mixing beta               =       0.4000
     number of iterations used =            8  plain     mixing
     energy convergence thresh.=      0.0E+00
     force convergence thresh. =      0.0E+00
     press convergence thresh. =      0.0E+00
     Exchange-correlation= PBESOL
                           (   1   4  10   8   0   0   0)
     nstep                     =          100

     celldm(1)=  11.028949  celldm(2)=   0.000000  celldm(3)=   0.000000
     celldm(4)=   0.000000  celldm(5)=   0.000000  celldm(6)=   0.000000

     crystal axes: (cart. coord. in units of alat)
               a(1) = (   1.000000   0.000000   0.000000 )
               a(2) = (  -0.500000   0.866025   0.000000 )
               a(3) = (   0.000000   0.000000   0.812051 )

     reciprocal axes: (cart. coord. in units 2 pi/alat)
               b(1) = (  1.000000  0.577350 -0.000000 )
               b(2) = (  0.000000  1.154701  0.000000 )
               b(3) = (  0.000000 -0.000000  1.231450 )

     PseudoPot. # 1 for Au read from file:
     ./pseudo/Au_ONCV_PBEsol-1.0.upf
     MD5 check sum: 107326c382cdbc7cf544f5ac04d81467
     Pseudo is Norm-conserving, Zval = 19.0
     Generated using ONCVPSP code by D. R. Hamann
     Using radial grid of 1262 points,  8 beta functions with:
                l(1) =   0
                l(2) =   0
                l(3) =   1
                l(4) =   1
                l(5) =   2
                l(6) =   2
                l(7) =   3
                l(8) =   3

     PseudoPot. # 2 for Si read from file:
     ./pseudo/Si.pbesol-n-rrkjus_psl.1.0.0.UPF
     MD5 check sum: c4212819de858c94c3a1644338846ac9
     Pseudo is Ultrasoft + core correction, Zval =  4.0
     Generated using "atomic" code by A. Dal Corso  v.6.0 svn rev. 13079
     Using radial grid of 1141 points,  6 beta functions with:
                l(1) =   0
                l(2) =   0
                l(3) =   1
                l(4) =   1
                l(5) =   2
                l(6) =   2
     Q(r) pseudized with 0 coefficients

     atomic species   valence    mass     pseudopotential
        Au            19.00   196.96657     Au( 1.00)
        Si             4.00    28.08550     Si( 1.00)

      cell mass =  94.07447 AMU

     No symmetry found

   Cartesian axes

     site n.     atom                  positions (alat units)
         1           Si  tau(   1) = (   0.5000000   0.2886751   0.2030127  )
         2           Si  tau(   2) = (  -0.0000000   0.5773503   0.6090381  )
         3           Au  tau(   3) = (   0.2524331   0.1457423   0.6090381  )
         4           Au  tau(   4) = (   0.7475669   0.1457423   0.6090381  )
         5           Au  tau(   5) = (   0.5000000   0.5745408   0.6090381  )
         6           Au  tau(   6) = (   0.2475669   0.7202831   0.2030127  )
         7           Au  tau(   7) = (  -0.2475669   0.7202831   0.2030127  )
         8           Au  tau(   8) = (  -0.0000000   0.2914847   0.2030127  )

     number of k points=    14  Marzari-Vanderbilt smearing, width (Ry)=  0.0200
                       cart. coord. in units 2pi/alat
        k(    1) = (   0.0000000   0.0000000   0.0000000), wk =   0.0740741
        k(    2) = (   0.0000000   0.0000000   0.4104834), wk =   0.1481481
        k(    3) = (   0.0000000   0.3849002   0.0000000), wk =   0.1481481
        k(    4) = (   0.0000000   0.3849002   0.4104834), wk =   0.1481481
        k(    5) = (   0.0000000   0.3849002  -0.4104834), wk =   0.1481481
        k(    6) = (   0.3333333   0.1924501   0.0000000), wk =   0.1481481
        k(    7) = (   0.3333333   0.1924501   0.4104834), wk =   0.1481481
        k(    8) = (   0.3333333   0.1924501  -0.4104834), wk =   0.1481481
        k(    9) = (   0.3333333   0.5773503   0.0000000), wk =   0.1481481
        k(   10) = (   0.3333333   0.5773503   0.4104834), wk =   0.1481481
        k(   11) = (   0.3333333   0.5773503  -0.4104834), wk =   0.1481481
        k(   12) = (   0.3333333  -0.1924501   0.0000000), wk =   0.1481481
        k(   13) = (   0.3333333  -0.1924501   0.4104834), wk =   0.1481481
        k(   14) = (   0.3333333  -0.1924501  -0.4104834), wk =   0.1481481

     Initial potential from superposition of free atoms

     starting charge     121.9984, renormalised to     122.0000
     Starting wfcs are   68 randomized atomic wfcs +    5 random wfcs

     Self-consistent Calculation

     iteration #  1     ecut=    45.00 Ry     beta= 0.40
     Davidson diagonalization with overlap
     ethr =  1.00E-02,  avg # of iterations =  3.1

     Threshold (ethr) on eigenvalues was too large:
     Diagonalizing with lowered threshold

     Davidson diagonalization with overlap
     ethr =  3.23E-05,  avg # of iterations =  4.1

     total energy              =   -1671.02625317 Ry
     estimated scf accuracy    <       0.03610123 Ry

[...]

     End of self-consistent calculation

          k = 0.0000 0.0000 0.0000 (  4825 PWs)   bands (ev):

   -88.8674 -88.8608 -88.8607 -88.8607 -88.8574 -88.8574 -40.1978 -40.1712
   -40.1712 -40.1704 -40.1679 -40.1606 -40.1606 -40.1279 -40.1228 -40.1228
   -40.0817 -40.0602 -40.0602 -40.0545 -40.0545 -40.0536 -40.0536 -40.0407
     6.0557   8.2960  10.3829  10.4054  10.4354  10.5683  10.5683  10.8773
    10.8773  11.5147  11.5147  12.0450  12.1557  12.1557  12.2138  12.4244
    12.4244  12.4650  12.6295  12.6295  13.4000  13.4000  13.5288  13.5288
    13.8864  13.8864  13.9795  13.9795  14.3257  14.5812  14.8064  14.8846
    14.9276  15.0232  15.9190  15.9190  16.7773  16.7773  17.2562  19.3398
    19.3584  19.5296  19.5296  21.8421  22.5152  22.5152  22.5553  22.5553
    24.7750

[...]

     the Fermi energy is    16.9159 ev

!    total energy              =   -1671.03272080 Ry
     estimated scf accuracy    <          1.1E-10 Ry
     smearing contrib. (-TS)   =       0.00072670 Ry
     internal energy E=F+TS    =   -1671.03344751 Ry

     convergence has been achieved in  11 iterations

     Forces acting on atoms (cartesian axes, Ry/au):

     atom    1 type  2   force =     0.00000005   -0.00000007    0.00004416
     atom    2 type  2   force =     0.00000004    0.00000007   -0.00004415
     atom    3 type  1   force =    -0.00000808   -0.00000445    0.00000135
     atom    4 type  1   force =     0.00000777   -0.00000418    0.00000133
     atom    5 type  1   force =    -0.00000000    0.00000974    0.00000134
     atom    6 type  1   force =     0.00000760    0.00000397   -0.00000136
     atom    7 type  1   force =    -0.00000748    0.00000410   -0.00000135
     atom    8 type  1   force =     0.00000011   -0.00000916   -0.00000132
     The non-local contrib.  to forces
     atom    1 type  2   force =    -0.00000001    0.00000017    0.00001426
     atom    2 type  2   force =     0.00000000   -0.00000020   -0.00001426
     atom    3 type  1   force =     0.00813505    0.00469647    0.00000173
     atom    4 type  1   force =    -0.00813526    0.00469655    0.00000171
     atom    5 type  1   force =     0.00000000   -0.00939304    0.00000171
     atom    6 type  1   force =    -0.00813547   -0.00469661   -0.00000174
     atom    7 type  1   force =     0.00813546   -0.00469666   -0.00000172
     atom    8 type  1   force =    -0.00000003    0.00939339   -0.00000170
     The ionic contribution  to forces
     atom    1 type  2   force =    -0.00000025    0.00000014    0.00000000
     atom    2 type  2   force =     0.00000025   -0.00000014    0.00000000
     atom    3 type  1   force =     8.89478480    5.13540672   -0.00000000
     atom    4 type  1   force =    -8.89478480    5.13540640   -0.00000000
     atom    5 type  1   force =    -0.00000027  -10.27081296   -0.00000000
     atom    6 type  1   force =    -8.89478480   -5.13540672    0.00000000
     atom    7 type  1   force =     8.89478480   -5.13540640    0.00000000
     atom    8 type  1   force =     0.00000027   10.27081296    0.00000000
     The local contribution  to forces
     atom    1 type  2   force =     0.00000034   -0.00000128   -0.00001715
     atom    2 type  2   force =    -0.00000033    0.00000140    0.00001716
     atom    3 type  1   force =    -8.90297140   -5.14014093    0.00000078
     atom    4 type  1   force =     8.90297004   -5.14013968    0.00000078
     atom    5 type  1   force =     0.00000077   10.28027501    0.00000091
     atom    6 type  1   force =     8.90296759    5.14013963   -0.00000091
     atom    7 type  1   force =    -8.90296791    5.14013831   -0.00000085
     atom    8 type  1   force =    -0.00000097  -10.28027206   -0.00000067
     The core correction contribution to forces
     atom    1 type  2   force =     0.00000000   -0.00000003    0.00004691
     atom    2 type  2   force =    -0.00000000    0.00000003   -0.00004691
     atom    3 type  1   force =     0.00000000    0.00000000    0.00000000
     atom    4 type  1   force =     0.00000000    0.00000000    0.00000000
     atom    5 type  1   force =     0.00000000    0.00000000    0.00000000
     atom    6 type  1   force =     0.00000000    0.00000000    0.00000000
     atom    7 type  1   force =     0.00000000    0.00000000    0.00000000
     atom    8 type  1   force =     0.00000000    0.00000000    0.00000000
     The Hubbard contrib.    to forces
     atom    1 type  2   force =     0.00000000    0.00000000    0.00000000
     atom    2 type  2   force =     0.00000000    0.00000000    0.00000000
     atom    3 type  1   force =     0.00000000    0.00000000    0.00000000
     atom    4 type  1   force =     0.00000000    0.00000000    0.00000000
     atom    5 type  1   force =     0.00000000    0.00000000    0.00000000
     atom    6 type  1   force =     0.00000000    0.00000000    0.00000000
     atom    7 type  1   force =     0.00000000    0.00000000    0.00000000
     atom    8 type  1   force =     0.00000000    0.00000000    0.00000000
     The SCF correction term to forces
     atom    1 type  2   force =    -0.00000008    0.00000091    0.00000014
     atom    2 type  2   force =     0.00000007   -0.00000103   -0.00000014
     atom    3 type  1   force =     0.00004342    0.00003328   -0.00000116
     atom    4 type  1   force =    -0.00004225    0.00003254   -0.00000117
     atom    5 type  1   force =    -0.00000054   -0.00005928   -0.00000128
     atom    6 type  1   force =    -0.00003977   -0.00003234    0.00000129
     atom    7 type  1   force =     0.00004012   -0.00003116    0.00000122
     atom    8 type  1   force =     0.00000079    0.00005654    0.00000105

     Total force =     0.000066     Total SCF correction =     0.000133
     SCF correction compared to forces is large: reduce conv_thr to get better values

     Computing stress (Cartesian axis) and pressure

          total   stress  (Ry/bohr**3)                   (kbar)     P=      -74.64
  -0.00065227   0.00000000   0.00000000          -95.95        0.00        0.00
   0.00000000  -0.00065227   0.00000000            0.00      -95.95        0.00
   0.00000000   0.00000000  -0.00021769            0.00        0.00      -32.02

     Entering Dynamics;  it =     1   time =  0.00000 pico-seconds

  new lattice vectors (alat unit) :
   0.999987889  -0.000008217   0.000000576
  -0.500001061   0.866007853   0.000000637
   0.000000468   0.000000867   0.812046879
  new unit-cell volume =    943.4045 (a.u.)^3
  new positions in cryst coord
Si       0.666488926   0.333616063   0.251127128
Si       0.333511074   0.666383937   0.748872872
Au       0.335329489   0.168376757   0.749402202
Au       0.831566792   0.168170778   0.750949993
Au       0.831817704   0.662690479   0.749254203
Au       0.663274790   0.832012074   0.250194895
Au       0.169024051   0.832081990   0.250271345
Au       0.168987174   0.336667924   0.249927362
  new positions in cart coord (alat unit)
Si       0.499672587   0.288908871   0.203927597
Si       0.000314709   0.577091632   0.608120495
Au       0.251137222   0.145813488   0.608550020
Au       0.747471505   0.145631032   0.609807184
Au       0.500462038   0.573888973   0.608430439
Au       0.247259955   0.720523756   0.203170895
Au      -0.247019756   0.720588366   0.203232692
Au       0.000650926   0.291555894   0.202953046

     Ekin =     0.13300609 Ry    T =    0.0 K  Etot =    -1670.89971472
     new unit-cell volume =    943.40452 a.u.^3 (   139.79813 Ang^3 )
     density =     14.70476 g/cm^3

CELL_PARAMETERS (angstrom)
   5.836197598  -0.000047958   0.000003363
  -2.918140332   5.054254164   0.000003715
   0.000002731   0.000005060   4.739323444

ATOMIC_POSITIONS (crystal)
Si            0.6664889264        0.3336160627        0.2511271276
Si            0.3335110736        0.6663839372        0.7488728724
Au            0.3353294892        0.1683767570        0.7494022022
Au            0.8315667915        0.1681707776        0.7509499927
Au            0.8318177037        0.6626904785        0.7492542033
Au            0.6632747899        0.8320120736        0.2501948946
Au            0.1690240513        0.8320819895        0.2502713453
Au            0.1689871743        0.3366679238        0.2499273619

     Writing config-only to output data dir ./out/siau_relax.save/
     NEW-OLD atomic charge density approx. for the potential
     extrapolated charge  121.99489, renormalised to  122.00000

[...]

          k =-0.0000-0.0000 0.4105 (  4825 PWs)   bands (ev):

[...]

     Total force =     0.002123     Total SCF correction =     0.000106

[...]

     Threshold (ethr) on eigenvalues was too large:
     Diagonalizing with lowered threshold

     Davidson diagonalization with overlap
     ethr =  4.76E-08,  avg # of iterations =  2.0

[...]

     Writing config-only to output data dir ./out/siau_relax.save/
     NEW-OLD atomic charge density approx. for the potential
     extrapolated charge  122.25210, renormalised to  122.00000

     Self-consistent Calculation

[...]

     total energy              =   -1671.01593785 Ry
     estimated scf accuracy    <       0.00000005 Ry

     iteration # 11     ecut=    45.00 Ry     beta= 0.40
     Davidson diagonalization with overlap
     ethr =  4.37E-11,  avg # of iterations =  2.0

     End of self-consistent calculation

[...]

          k =-0.0016 0.0039 0.3818 (  4825 PWs)   bands (ev):

[...]

          k = 0.3366-0.2010-0.3849 (  4813 PWs)   bands (ev):

   -89.1100 -89.0247 -88.9900 -88.9633 -88.9379 -88.8433 -40.4701 -40.4382
   -40.4043 -40.3641 -40.3330 -40.3011 -40.2962 -40.2496 -40.2385 -40.2140
   -40.2016 -40.1900 -40.1825 -40.1401 -40.1336 -40.1125 -40.0655 -40.0198
     7.1440   7.9053   9.4414  10.0214  10.3701  10.5197  10.6979  10.9267
    10.9852  11.1579  11.2926  11.4844  11.5881  11.6480  11.7726  12.1006
    12.1926  12.4340  12.5560  12.6605  12.7346  12.9488  13.1018  13.1317
    13.2377  13.5524  13.6520  13.8478  13.8992  13.9926  14.3058  14.5726
    14.7176  15.0638  15.3118  16.0366  16.8118  16.9923  18.5939  19.7688
    20.1454  20.3640  20.6979  21.5005  22.1894  23.3442  23.5351  23.8417
    24.2432

     the Fermi energy is    17.0232 ev

!    total energy              =   -1671.01593786 Ry
     estimated scf accuracy    <          2.5E-10 Ry
     smearing contrib. (-TS)   =      -0.00104747 Ry
     internal energy E=F+TS    =   -1671.01489039 Ry

     convergence has been achieved in  11 iterations

     Forces acting on atoms (cartesian axes, Ry/au):

     atom    1 type  2   force =     0.00475198    0.01298671   -0.00441881
     atom    2 type  2   force =    -0.01148829   -0.01141890   -0.00580330
     atom    3 type  1   force =     0.05208586    0.01877768   -0.00352328
     atom    4 type  1   force =    -0.03095621   -0.02503459   -0.01721748
     atom    5 type  1   force =    -0.01353972    0.02828618   -0.00577120
     atom    6 type  1   force =     0.04406502   -0.00605308    0.04575603
     atom    7 type  1   force =    -0.03580905   -0.02574547   -0.00954978
     atom    8 type  1   force =    -0.00910959    0.00820146    0.00052783
     The non-local contrib.  to forces
     atom    1 type  2   force =    -0.00319760   -0.01607614    0.00216781
     atom    2 type  2   force =    -0.01521113   -0.04416080   -0.04930968
     atom    3 type  1   force =     0.11961074   -0.05323790   -0.00872158
     atom    4 type  1   force =     0.00024828   -0.01341916   -0.00493405
     atom    5 type  1   force =    -0.09148907    0.09484453    0.01063556
     atom    6 type  1   force =     0.11020485   -0.02792322    0.04534151
     atom    7 type  1   force =    -0.05551760   -0.03465220   -0.05586550
     atom    8 type  1   force =    -0.05666244    0.02362895    0.01524096
     The ionic contribution  to forces
     atom    1 type  2   force =     0.44991629    1.78171948   -0.24939479
     atom    2 type  2   force =    -0.76509633   -0.06835319    1.04962009
     atom    3 type  1   force =    11.41036065    5.39672877    1.13746781
     atom    4 type  1   force =   -11.54947540   -0.83223587   -4.27863946
     atom    5 type  1   force =    -0.92267433   -3.82796667    3.16853071
     atom    6 type  1   force =     0.34940369   -5.16013968    3.43111792
     atom    7 type  1   force =     1.54054725   -7.57286582   -5.12893958
     atom    8 type  1   force =    -0.51298183   10.28311297    0.87023730
     The local contribution  to forces
     atom    1 type  2   force =    -0.44202907   -1.75312616    0.24283930
     atom    2 type  2   force =     0.76607001    0.09532686   -1.01129858
     atom    3 type  1   force =   -11.47785600   -5.32466678   -1.13227796
     atom    4 type  1   force =    11.51822160    0.82063264    4.26635599
     atom    5 type  1   force =     1.00063076    3.76136348   -3.18495519
     atom    6 type  1   force =    -0.41558560    5.18198947   -3.43070299
     atom    7 type  1   force =    -1.52079819    7.58175332    5.17524762
     atom    8 type  1   force =     0.56054545  -10.29849182   -0.88495844
     The core correction contribution to forces
     atom    1 type  2   force =     0.00006280    0.00047003   -0.00004008
     atom    2 type  2   force =     0.00274941    0.00576770    0.00517592
     atom    3 type  1   force =     0.00000000    0.00000000    0.00000000
     atom    4 type  1   force =     0.00000000    0.00000000    0.00000000
     atom    5 type  1   force =     0.00000000    0.00000000    0.00000000
     atom    6 type  1   force =     0.00000000    0.00000000    0.00000000
     atom    7 type  1   force =     0.00000000    0.00000000    0.00000000
     atom    8 type  1   force =     0.00000000    0.00000000    0.00000000
     The Hubbard contrib.    to forces
     atom    1 type  2   force =     0.00000000    0.00000000    0.00000000
     atom    2 type  2   force =     0.00000000    0.00000000    0.00000000
     atom    3 type  1   force =     0.00000000    0.00000000    0.00000000
     atom    4 type  1   force =     0.00000000    0.00000000    0.00000000
     atom    5 type  1   force =     0.00000000    0.00000000    0.00000000
     atom    6 type  1   force =     0.00000000    0.00000000    0.00000000
     atom    7 type  1   force =     0.00000000    0.00000000    0.00000000
     atom    8 type  1   force =     0.00000000    0.00000000    0.00000000
     The SCF correction term to forces
     atom    1 type  2   force =    -0.00000012   -0.00000013    0.00000023
     atom    2 type  2   force =     0.00000006    0.00000090    0.00000024
     atom    3 type  1   force =    -0.00002921   -0.00004604   -0.00000027
     atom    4 type  1   force =     0.00004963   -0.00001183   -0.00000867
     atom    5 type  1   force =    -0.00000676    0.00004521    0.00000901
     atom    6 type  1   force =     0.00004239    0.00002073   -0.00000913
     atom    7 type  1   force =    -0.00004018    0.00001960   -0.00000105
     atom    8 type  1   force =    -0.00001045   -0.00004826   -0.00000071

     Total force =     0.112880     Total SCF correction =     0.000121

     Computing stress (Cartesian axis) and pressure

          total   stress  (Ry/bohr**3)                   (kbar)     P=      -10.73
  -0.00017625   0.00003228  -0.00002382          -25.93        4.75       -3.50
   0.00003228  -0.00003687  -0.00015060            4.75       -5.42      -22.15
  -0.00002382  -0.00015060  -0.00000565           -3.50      -22.15       -0.83

     Entering Dynamics;  it =   100   time =  0.09579 pico-seconds

  new lattice vectors (alat unit) :
   0.984184397  -0.018813120   0.004197724
  -0.508384838   0.827316508  -0.010965502
   0.003408765  -0.008314031   0.874963385
  new unit-cell volume =    944.4033 (a.u.)^3
  new positions in cryst coord
Si       0.683549990   0.340105638   0.252640407
Si       0.355620168   0.683405894   0.713349927
Au       0.247004011   0.174459051   0.722496573
Au       0.781910713   0.137455715   0.832857501
Au       0.842648712   0.606461562   0.697804286
Au       0.684702810   0.870195213   0.278164675
Au       0.215950889   0.860189149   0.251411841
Au       0.222197585   0.347886797   0.222114568
  new positions in cart coord (alat unit)
Si       0.500695876   0.266414840   0.220191031
Si       0.004994267   0.552771839   0.618153974
Au       0.156867978   0.133679078   0.631281871
Au       0.702502937   0.092084799   0.730494793
Au       0.523384502   0.480081244   0.607440251
Au       0.232427968   0.704732798   0.236715972
Au      -0.223914622   0.705495727   0.211450252
Au       0.042580159   0.281785593   0.191460085

     Ekin =     0.11652429 Ry    T = 1265.3 K  Etot =    -1670.89941356
     new unit-cell volume =    944.40334 a.u.^3 (   139.94614 Ang^3 )
     density =     14.68921 g/cm^3

CELL_PARAMETERS (angstrom)
   5.743964176  -0.109798417   0.024499041
  -2.967070306   4.828441090  -0.063997613
   0.019894465  -0.048522914   5.106521052

ATOMIC_POSITIONS (crystal)
Si            0.6835499900        0.3401056381        0.2526404073
Si            0.3556201679        0.6834058943        0.7133499274
Au            0.2470040106        0.1744590508        0.7224965733
Au            0.7819107127        0.1374557146        0.8328575008
Au            0.8426487122        0.6064615623        0.6978042857
Au            0.6847028104        0.8701952125        0.2781646754
Au            0.2159508895        0.8601891490        0.2514118414
Au            0.2221975845        0.3478867970        0.2221145679

     Maximum number of iterations reached, stopping

     Writing all to output data dir ./out/siau_relax.save/

     General routines

     Parallel routines

   This run was terminated on:   8:58:36  15Jan2025

   JOB DONE.
Note: The following floating-point exceptions are signalling: IEEE_INVALID_FLAG IEEE_DENORMAL
Note: The following floating-point exceptions are signalling: IEEE_INVALID_FLAG IEEE_DENORMAL
Note: The following floating-point exceptions are signalling: IEEE_INVALID_FLAG IEEE_DENORMAL
Note: The following floating-point exceptions are signalling: IEEE_INVALID_FLAG IEEE_DENORMAL
Note: The following floating-point exceptions are signalling: IEEE_INVALID_FLAG IEEE_DENORMAL
Note: The following floating-point exceptions are signalling: IEEE_INVALID_FLAG IEEE_DENORMAL
Note: The following floating-point exceptions are signalling: IEEE_INVALID_FLAG IEEE_DENORMAL
Note: The following floating-point exceptions are signalling: IEEE_INVALID_FLAG IEEE_DENORMAL
Note: The following floating-point exceptions are signalling: IEEE_INVALID_FLAG IEEE_DENORMAL
Note: The following floating-point exceptions are signalling: IEEE_INVALID_FLAG IEEE_DENORMAL
Note: The following floating-point exceptions are signalling: IEEE_INVALID_FLAG IEEE_DENORMAL
Note: The following floating-point exceptions are signalling: IEEE_INVALID_FLAG IEEE_DENORMAL
Note: The following floating-point exceptions are signalling: IEEE_INVALID_FLAG IEEE_DENORMAL
Note: The following floating-point exceptions are signalling: IEEE_INVALID_FLAG IEEE_DENORMAL
Note: The following floating-point exceptions are signalling: IEEE_INVALID_FLAG IEEE_DENORMAL
Note: The following floating-point exceptions are signalling: IEEE_INVALID_FLAG IEEE_DENORMAL
Note: The following floating-point exceptions are signalling: IEEE_INVALID_FLAG IEEE_DENORMAL
Note: The following floating-point exceptions are signalling: IEEE_INVALID_FLAG IEEE_DENORMAL
Note: The following floating-point exceptions are signalling: IEEE_INVALID_FLAG IEEE_DENORMAL
Note: The following floating-point exceptions are signalling: IEEE_INVALID_FLAG IEEE_DENORMAL
Note: The following floating-point exceptions are signalling: IEEE_INVALID_FLAG IEEE_DENORMAL
Note: The following floating-point exceptions are signalling: IEEE_INVALID_FLAG IEEE_DENORMAL
Note: The following floating-point exceptions are signalling: IEEE_INVALID_FLAG IEEE_DENORMAL
Note: The following floating-point exceptions are signalling: IEEE_INVALID_FLAG IEEE_DENORMAL
Note: The following floating-point exceptions are signalling: IEEE_INVALID_FLAG IEEE_DENORMAL
Note: The following floating-point exceptions are signalling: IEEE_INVALID_FLAG IEEE_DENORMAL
Note: The following floating-point exceptions are signalling: IEEE_INVALID_FLAG IEEE_DENORMAL
Note: The following floating-point exceptions are signalling: IEEE_INVALID_FLAG IEEE_DENORMAL
Note: The following floating-point exceptions are signalling: IEEE_INVALID_FLAG IEEE_DENORMAL
Note: The following floating-point exceptions are signalling: IEEE_INVALID_FLAG IEEE_DENORMAL
Note: The following floating-point exceptions are signalling: IEEE_INVALID_FLAG IEEE_DENORMAL
Note: The following floating-point exceptions are signalling: IEEE_INVALID_FLAG IEEE_DENORMAL